50
14912

483 137
879 492
884 555
460 224
366 719
872 692
675 191
899 532
617 572
576 188
180 32
296 95
567 571
105 267
544 244
762 584
440 821
458 326
653 573
150 788
600 907
166 416
57 821
483 636
927 133
903 404
63 886
927 316
379 151
116 230
193 90
217 119
152 742
429 523
151 812
149 713
650 503
204 877
234 992
669 132
843 72
314 78
111 495
912 62
306 817
309 940
646 307
452 956
653 8
353 871
